# Solution for model count
# Objective value = 10
z#1 1
z#2 0
z#3 0
z#4 0
z#5 1
z#6 0
z#7 0
z#8 0
z#9 0
z#10 0
z#11 0
z#12 1
z#13 1
z#14 1
z#15 1
z#16 0
z#17 0
z#18 0
z#19 0
z#20 1
z#21 1
z#22 0
z#23 1
z#24 1
x#24 420
x#23 19
x#22 0
x#21 2649
x#20 370
x#19 0
x#18 0
x#17 0
x#16 0
x#15 488
x#14 3364
x#13 113
x#12 427
x#11 0
x#10 0
x#9 0
x#8 0
x#7 0
x#6 0
x#5 1928
x#4 0
x#3 0
x#2 0
x#1 222
